n_machines = 5;
n_resources = 10;
n_jobs = 100;
horizon = 496;
LB = 99;
n_jobs_per_resource = [10, 10, 10, 10, 10, 10, 10, 10, 10, 10];
duration = [2, 4, 5, 8, 3, 2, 8, 7, 9, 5, 5, 7, 6, 7, 4, 2, 4, 2, 7, 3, 2, 4, 2, 1, 2, 4, 6, 9, 5, 7, 7, 1, 7, 7, 3, 7, 1, 8, 8, 2, 1, 9, 6, 9, 5, 1, 5, 6, 9, 9, 4, 5, 6, 4, 6, 2, 3, 9, 4, 7, 6, 4, 5, 2, 2, 9, 4, 2, 3, 7, 4, 6, 9, 2, 8, 8, 5, 1, 5, 4, 7, 1, 5, 9, 4, 3, 2, 8, 4, 5, 1, 8, 6, 2, 3, 9, 4, 5, 2, 9]